<div id="readme" class="md" data-path="README.md"><article class="markdown-body entry-content container-lg" itemprop="text"><h1 dir="auto"><a id="user-content-xpressjl" class="anchor" aria-hidden="true" href="#xpressjl"><svg class="octicon octicon-link" viewBox="0 0 16 16" version="1.1" width="16" height="16" aria-hidden="true"><path d="m7.775 3.275 1.25-1.25a3.5 3.5 0 1 1 4.95 4.95l-2.5 2.5a3.5 3.5 0 0 1-4.95 0 .751.751 0 0 1 .018-1.042.751.751 0 0 1 1.042-.018 1.998 1.998 0 0 0 2.83 0l2.5-2.5a2.002 2.002 0 0 0-2.83-2.83l-1.25 1.25a.751.751 0 0 1-1.042-.018.751.751 0 0 1-.018-1.042Zm-4.69 9.64a1.998 1.998 0 0 0 2.83 0l1.25-1.25a.751.751 0 0 1 1.042.018.751.751 0 0 1 .018 1.042l-1.25 1.25a3.5 3.5 0 1 1-4.95-4.95l2.5-2.5a3.5 3.5 0 0 1 4.95 0 .751.751 0 0 1-.018 1.042.751.751 0 0 1-1.042.018 1.998 1.998 0 0 0-2.83 0l-2.5 2.5a1.998 1.998 0 0 0 0 2.83Z"></path></svg></a>Xpress.jl</h1>
<p dir="auto"><a href="https://github.com/jump-dev/Xpress.jl/actions?query=workflow%3ACI"><img src="https://github.com/jump-dev/Xpress.jl/workflows/CI/badge.svg?branch=master" alt="Build Status" style="max-width: 100%;"></a>
<a href="https://codecov.io/gh/jump-dev/Xpress.jl" rel="nofollow"><img src="https://camo.githubusercontent.com/fc5e8ce8e8c4ba86c36670bba166bcf313e5626f0d90302af7c9cdf77ff6ec8b/68747470733a2f2f636f6465636f762e696f2f67682f6a756d702d6465762f5870726573732e6a6c2f6272616e63682f6d61737465722f67726170682f62616467652e737667" alt="codecov" data-canonical-src="https://codecov.io/gh/jump-dev/Xpress.jl/branch/master/graph/badge.svg" style="max-width: 100%;"></a></p>
<p dir="auto"><a href="https://github.com/jump-dev/Xpress.jl">Xpress.jl</a> is a wrapper for the <a href="https://www.fico.com/products/fico-xpress-solver" rel="nofollow">FICO Xpress Solver</a>.</p>
<p dir="auto">It has two components:</p>
<ul dir="auto">
<li>a thin wrapper around the complete C API</li>
<li>an interface to <a href="https://github.com/jump-dev/MathOptInterface.jl">MathOptInterface</a></li>
</ul>
<h2 dir="auto"><a id="user-content-affiliation" class="anchor" aria-hidden="true" href="#affiliation"><svg class="octicon octicon-link" viewBox="0 0 16 16" version="1.1" width="16" height="16" aria-hidden="true"><path d="m7.775 3.275 1.25-1.25a3.5 3.5 0 1 1 4.95 4.95l-2.5 2.5a3.5 3.5 0 0 1-4.95 0 .751.751 0 0 1 .018-1.042.751.751 0 0 1 1.042-.018 1.998 1.998 0 0 0 2.83 0l2.5-2.5a2.002 2.002 0 0 0-2.83-2.83l-1.25 1.25a.751.751 0 0 1-1.042-.018.751.751 0 0 1-.018-1.042Zm-4.69 9.64a1.998 1.998 0 0 0 2.83 0l1.25-1.25a.751.751 0 0 1 1.042.018.751.751 0 0 1 .018 1.042l-1.25 1.25a3.5 3.5 0 1 1-4.95-4.95l2.5-2.5a3.5 3.5 0 0 1 4.95 0 .751.751 0 0 1-.018 1.042.751.751 0 0 1-1.042.018 1.998 1.998 0 0 0-2.83 0l-2.5 2.5a1.998 1.998 0 0 0 0 2.83Z"></path></svg></a>Affiliation</h2>
<p dir="auto">The Xpress wrapper for Julia is community driven and not officially supported
by FICO Xpress. If you are a commercial customer interested in official support
for Julia from FICO Xpress, let them know.</p>
<h2 dir="auto"><a id="user-content-license" class="anchor" aria-hidden="true" href="#license"><svg class="octicon octicon-link" viewBox="0 0 16 16" version="1.1" width="16" height="16" aria-hidden="true"><path d="m7.775 3.275 1.25-1.25a3.5 3.5 0 1 1 4.95 4.95l-2.5 2.5a3.5 3.5 0 0 1-4.95 0 .751.751 0 0 1 .018-1.042.751.751 0 0 1 1.042-.018 1.998 1.998 0 0 0 2.83 0l2.5-2.5a2.002 2.002 0 0 0-2.83-2.83l-1.25 1.25a.751.751 0 0 1-1.042-.018.751.751 0 0 1-.018-1.042Zm-4.69 9.64a1.998 1.998 0 0 0 2.83 0l1.25-1.25a.751.751 0 0 1 1.042.018.751.751 0 0 1 .018 1.042l-1.25 1.25a3.5 3.5 0 1 1-4.95-4.95l2.5-2.5a3.5 3.5 0 0 1 4.95 0 .751.751 0 0 1-.018 1.042.751.751 0 0 1-1.042.018 1.998 1.998 0 0 0-2.83 0l-2.5 2.5a1.998 1.998 0 0 0 0 2.83Z"></path></svg></a>License</h2>
<p dir="auto"><code>Xpress.jl</code> is licensed under the <a href="https://github.com/jump-dev/Xpress.jl/blob/master/LICENSE.md">MIT License</a>.</p>
<p dir="auto">The underlying solver is a closed-source commercial product for which you must
<a href="https://www.fico.com/products/fico-xpress-solver" rel="nofollow">purchase a license</a>.</p>
<h2 dir="auto"><a id="user-content-installation" class="anchor" aria-hidden="true" href="#installation"><svg class="octicon octicon-link" viewBox="0 0 16 16" version="1.1" width="16" height="16" aria-hidden="true"><path d="m7.775 3.275 1.25-1.25a3.5 3.5 0 1 1 4.95 4.95l-2.5 2.5a3.5 3.5 0 0 1-4.95 0 .751.751 0 0 1 .018-1.042.751.751 0 0 1 1.042-.018 1.998 1.998 0 0 0 2.83 0l2.5-2.5a2.002 2.002 0 0 0-2.83-2.83l-1.25 1.25a.751.751 0 0 1-1.042-.018.751.751 0 0 1-.018-1.042Zm-4.69 9.64a1.998 1.998 0 0 0 2.83 0l1.25-1.25a.751.751 0 0 1 1.042.018.751.751 0 0 1 .018 1.042l-1.25 1.25a3.5 3.5 0 1 1-4.95-4.95l2.5-2.5a3.5 3.5 0 0 1 4.95 0 .751.751 0 0 1-.018 1.042.751.751 0 0 1-1.042.018 1.998 1.998 0 0 0-2.83 0l-2.5 2.5a1.998 1.998 0 0 0 0 2.83Z"></path></svg></a>Installation</h2>
<p dir="auto">First, obtain a license of Xpress and install Xpress solver, following the
<a href="https://www.fico.com/products/fico-xpress-solver" rel="nofollow">instructions on the FICO website</a>.</p>
<p dir="auto">Then, install this package using:</p>
<div class="highlight highlight-source-julia notranslate position-relative overflow-auto" dir="auto" data-snippet-clipboard-copy-content="import Pkg
Pkg.add(&quot;Xpress&quot;)"><pre><span class="pl-k">import</span> Pkg
Pkg<span class="pl-k">.</span><span class="pl-c1">add</span>(<span class="pl-s"><span class="pl-pds">"</span>Xpress<span class="pl-pds">"</span></span>)</pre></div>
<p dir="auto">If you encounter an error, make sure that the <code>XPRESSDIR</code> environmental variable
is set to the path of the Xpress directory. This should be part of a standard
installation. The Xpress library will be searched for in <code>XPRESSDIR/lib</code> on Unix
platforms and <code>XPRESSDIR/bin</code> on Windows.</p>
<p dir="auto">For example, on macOS, you may need:</p>
<div class="highlight highlight-source-julia notranslate position-relative overflow-auto" dir="auto" data-snippet-clipboard-copy-content="ENV[&quot;XPRESSDIR&quot;] = &quot;/Applications/FICO Xpress/xpressmp/&quot;
import Pkg
Pkg.add(&quot;Xpress&quot;)"><pre><span class="pl-c1">ENV</span>[<span class="pl-s"><span class="pl-pds">"</span>XPRESSDIR<span class="pl-pds">"</span></span>] <span class="pl-k">=</span> <span class="pl-s"><span class="pl-pds">"</span>/Applications/FICO Xpress/xpressmp/<span class="pl-pds">"</span></span>
<span class="pl-k">import</span> Pkg
Pkg<span class="pl-k">.</span><span class="pl-c1">add</span>(<span class="pl-s"><span class="pl-pds">"</span>Xpress<span class="pl-pds">"</span></span>)</pre></div>
<p dir="auto">By default, building Xpress.jl will fail if the Xpress library is not found.
This may not be desirable in certain cases, for example when part of a package's
test suite uses Xpress as an optional test dependency, but Xpress cannot be
installed on a CI server running the test suite. To support this use case, the
<code>XPRESS_JL_SKIP_LIB_CHECK</code> environment variable may be set (to any value) to
make Xpress.jl installable (but not usable).</p>
<h2 dir="auto"><a id="user-content-use-with-jump" class="anchor" aria-hidden="true" href="#use-with-jump"><svg class="octicon octicon-link" viewBox="0 0 16 16" version="1.1" width="16" height="16" aria-hidden="true"><path d="m7.775 3.275 1.25-1.25a3.5 3.5 0 1 1 4.95 4.95l-2.5 2.5a3.5 3.5 0 0 1-4.95 0 .751.751 0 0 1 .018-1.042.751.751 0 0 1 1.042-.018 1.998 1.998 0 0 0 2.83 0l2.5-2.5a2.002 2.002 0 0 0-2.83-2.83l-1.25 1.25a.751.751 0 0 1-1.042-.018.751.751 0 0 1-.018-1.042Zm-4.69 9.64a1.998 1.998 0 0 0 2.83 0l1.25-1.25a.751.751 0 0 1 1.042.018.751.751 0 0 1 .018 1.042l-1.25 1.25a3.5 3.5 0 1 1-4.95-4.95l2.5-2.5a3.5 3.5 0 0 1 4.95 0 .751.751 0 0 1-.018 1.042.751.751 0 0 1-1.042.018 1.998 1.998 0 0 0-2.83 0l-2.5 2.5a1.998 1.998 0 0 0 0 2.83Z"></path></svg></a>Use with JuMP</h2>
<p dir="auto">To use Xpress with JuMP, use:</p>
<div class="highlight highlight-source-julia notranslate position-relative overflow-auto" dir="auto" data-snippet-clipboard-copy-content="using JuMP, Xpress
model = Model(Xpress.Optimizer)
set_optimizer(model, &quot;PRESOLVE&quot;, 0)"><pre><span class="pl-k">using</span> JuMP, Xpress
model <span class="pl-k">=</span> <span class="pl-c1">Model</span>(Xpress<span class="pl-k">.</span>Optimizer)
<span class="pl-c1">set_optimizer</span>(model, <span class="pl-s"><span class="pl-pds">"</span>PRESOLVE<span class="pl-pds">"</span></span>, <span class="pl-c1">0</span>)</pre></div>
<h2 dir="auto"><a id="user-content-options" class="anchor" aria-hidden="true" href="#options"><svg class="octicon octicon-link" viewBox="0 0 16 16" version="1.1" width="16" height="16" aria-hidden="true"><path d="m7.775 3.275 1.25-1.25a3.5 3.5 0 1 1 4.95 4.95l-2.5 2.5a3.5 3.5 0 0 1-4.95 0 .751.751 0 0 1 .018-1.042.751.751 0 0 1 1.042-.018 1.998 1.998 0 0 0 2.83 0l2.5-2.5a2.002 2.002 0 0 0-2.83-2.83l-1.25 1.25a.751.751 0 0 1-1.042-.018.751.751 0 0 1-.018-1.042Zm-4.69 9.64a1.998 1.998 0 0 0 2.83 0l1.25-1.25a.751.751 0 0 1 1.042.018.751.751 0 0 1 .018 1.042l-1.25 1.25a3.5 3.5 0 1 1-4.95-4.95l2.5-2.5a3.5 3.5 0 0 1 4.95 0 .751.751 0 0 1-.018 1.042.751.751 0 0 1-1.042.018 1.998 1.998 0 0 0-2.83 0l-2.5 2.5a1.998 1.998 0 0 0 0 2.83Z"></path></svg></a>Options</h2>
<p dir="auto">For other parameters use <a href="https://www.fico.com/fico-xpress-optimization/docs/latest/solver/optimizer/HTML/" rel="nofollow">Xpress Optimizer manual</a>
or type <code>julia -e "using Xpress; println(keys(Xpress.XPRS_ATTRIBUTES))"</code>.</p>
<p dir="auto">If <code>logfile</code> is set to <code>""</code>, the log file is disabled and output is printed
to the console (<a href="https://www.fico.com/fico-xpress-optimization/docs/latest/solver/optimizer/HTML/OUTPUTLOG.html" rel="nofollow">there might be issues with console output on windows (it is manually implemented with callbacks)</a>).
If <code>logfile</code> is set to a file's path, output is printed to that file.
By default, <code>logfile = ""</code> (console).</p>
<h2 dir="auto"><a id="user-content-callbacks" class="anchor" aria-hidden="true" href="#callbacks"><svg class="octicon octicon-link" viewBox="0 0 16 16" version="1.1" width="16" height="16" aria-hidden="true"><path d="m7.775 3.275 1.25-1.25a3.5 3.5 0 1 1 4.95 4.95l-2.5 2.5a3.5 3.5 0 0 1-4.95 0 .751.751 0 0 1 .018-1.042.751.751 0 0 1 1.042-.018 1.998 1.998 0 0 0 2.83 0l2.5-2.5a2.002 2.002 0 0 0-2.83-2.83l-1.25 1.25a.751.751 0 0 1-1.042-.018.751.751 0 0 1-.018-1.042Zm-4.69 9.64a1.998 1.998 0 0 0 2.83 0l1.25-1.25a.751.751 0 0 1 1.042.018.751.751 0 0 1 .018 1.042l-1.25 1.25a3.5 3.5 0 1 1-4.95-4.95l2.5-2.5a3.5 3.5 0 0 1 4.95 0 .751.751 0 0 1-.018 1.042.751.751 0 0 1-1.042.018 1.998 1.998 0 0 0-2.83 0l-2.5 2.5a1.998 1.998 0 0 0 0 2.83Z"></path></svg></a>Callbacks</h2>
<p dir="auto">Solver specific and solver independent callbacks are working in
<a href="https://github.com/jump-dev/MathOptInterface.jl">MathOptInterface</a> and,
consequently, in <a href="https://github.com/jump-dev/JuMP.jl">JuMP</a>. However, the
current implementation should be considered experimental.</p>
<h2 dir="auto"><a id="user-content-environment-variables" class="anchor" aria-hidden="true" href="#environment-variables"><svg class="octicon octicon-link" viewBox="0 0 16 16" version="1.1" width="16" height="16" aria-hidden="true"><path d="m7.775 3.275 1.25-1.25a3.5 3.5 0 1 1 4.95 4.95l-2.5 2.5a3.5 3.5 0 0 1-4.95 0 .751.751 0 0 1 .018-1.042.751.751 0 0 1 1.042-.018 1.998 1.998 0 0 0 2.83 0l2.5-2.5a2.002 2.002 0 0 0-2.83-2.83l-1.25 1.25a.751.751 0 0 1-1.042-.018.751.751 0 0 1-.018-1.042Zm-4.69 9.64a1.998 1.998 0 0 0 2.83 0l1.25-1.25a.751.751 0 0 1 1.042.018.751.751 0 0 1 .018 1.042l-1.25 1.25a3.5 3.5 0 1 1-4.95-4.95l2.5-2.5a3.5 3.5 0 0 1 4.95 0 .751.751 0 0 1-.018 1.042.751.751 0 0 1-1.042.018 1.998 1.998 0 0 0-2.83 0l-2.5 2.5a1.998 1.998 0 0 0 0 2.83Z"></path></svg></a>Environment variables</h2>
<ul dir="auto">
<li><code>XPRESS_JL_SKIP_LIB_CHECK</code>: Used to skip build lib check as previously described.</li>
<li><code>XPRESS_JL_NO_INFO</code>: Disable license info log.</li>
<li><code>XPRESS_JL_NO_DEPS_ERROR</code>: Disable error when do deps.jl file is found.</li>
<li><code>XPRESS_JL_NO_AUTO_INIT</code>: Disable automatic run of <code>Xpress.initialize()</code>.
Specially useful for explicitly loading the dynamic library.</li>
</ul>
<h2 dir="auto"><a id="user-content-skipping-xpresspostsolve" class="anchor" aria-hidden="true" href="#skipping-xpresspostsolve"><svg class="octicon octicon-link" viewBox="0 0 16 16" version="1.1" width="16" height="16" aria-hidden="true"><path d="m7.775 3.275 1.25-1.25a3.5 3.5 0 1 1 4.95 4.95l-2.5 2.5a3.5 3.5 0 0 1-4.95 0 .751.751 0 0 1 .018-1.042.751.751 0 0 1 1.042-.018 1.998 1.998 0 0 0 2.83 0l2.5-2.5a2.002 2.002 0 0 0-2.83-2.83l-1.25 1.25a.751.751 0 0 1-1.042-.018.751.751 0 0 1-.018-1.042Zm-4.69 9.64a1.998 1.998 0 0 0 2.83 0l1.25-1.25a.751.751 0 0 1 1.042.018.751.751 0 0 1 .018 1.042l-1.25 1.25a3.5 3.5 0 1 1-4.95-4.95l2.5-2.5a3.5 3.5 0 0 1 4.95 0 .751.751 0 0 1-.018 1.042.751.751 0 0 1-1.042.018 1.998 1.998 0 0 0-2.83 0l-2.5 2.5a1.998 1.998 0 0 0 0 2.83Z"></path></svg></a>Skipping Xpress.postsolve</h2>
<p dir="auto">In older versions of Xpress, the command <code>XPRSpostsolve</code> throws an error in
infeasible models. In these older versions the post solve should not be
executed. To do this, one can use the <code>MOI.RawOptimizerAttribute("MOI_POST_SOLVE")</code>
to skip this routine.</p>
<h2 dir="auto"><a id="user-content-c-api" class="anchor" aria-hidden="true" href="#c-api"><svg class="octicon octicon-link" viewBox="0 0 16 16" version="1.1" width="16" height="16" aria-hidden="true"><path d="m7.775 3.275 1.25-1.25a3.5 3.5 0 1 1 4.95 4.95l-2.5 2.5a3.5 3.5 0 0 1-4.95 0 .751.751 0 0 1 .018-1.042.751.751 0 0 1 1.042-.018 1.998 1.998 0 0 0 2.83 0l2.5-2.5a2.002 2.002 0 0 0-2.83-2.83l-1.25 1.25a.751.751 0 0 1-1.042-.018.751.751 0 0 1-.018-1.042Zm-4.69 9.64a1.998 1.998 0 0 0 2.83 0l1.25-1.25a.751.751 0 0 1 1.042.018.751.751 0 0 1 .018 1.042l-1.25 1.25a3.5 3.5 0 1 1-4.95-4.95l2.5-2.5a3.5 3.5 0 0 1 4.95 0 .751.751 0 0 1-.018 1.042.751.751 0 0 1-1.042.018 1.998 1.998 0 0 0-2.83 0l-2.5 2.5a1.998 1.998 0 0 0 0 2.83Z"></path></svg></a>C API</h2>
<p dir="auto">The C API can be accessed via <code>Xpress.Lib.XPRSxx</code> functions, where the names and
arguments are identical to the C API.</p>
<p dir="auto">See the <a href="https://www.fico.com/fico-xpress-optimization/docs/latest/solver/optimizer/HTML" rel="nofollow">Xpress documentation</a>
for details.</p>
<h2 dir="auto"><a id="user-content-documentation" class="anchor" aria-hidden="true" href="#documentation"><svg class="octicon octicon-link" viewBox="0 0 16 16" version="1.1" width="16" height="16" aria-hidden="true"><path d="m7.775 3.275 1.25-1.25a3.5 3.5 0 1 1 4.95 4.95l-2.5 2.5a3.5 3.5 0 0 1-4.95 0 .751.751 0 0 1 .018-1.042.751.751 0 0 1 1.042-.018 1.998 1.998 0 0 0 2.83 0l2.5-2.5a2.002 2.002 0 0 0-2.83-2.83l-1.25 1.25a.751.751 0 0 1-1.042-.018.751.751 0 0 1-.018-1.042Zm-4.69 9.64a1.998 1.998 0 0 0 2.83 0l1.25-1.25a.751.751 0 0 1 1.042.018.751.751 0 0 1 .018 1.042l-1.25 1.25a3.5 3.5 0 1 1-4.95-4.95l2.5-2.5a3.5 3.5 0 0 1 4.95 0 .751.751 0 0 1-.018 1.042.751.751 0 0 1-1.042.018 1.998 1.998 0 0 0-2.83 0l-2.5 2.5a1.998 1.998 0 0 0 0 2.83Z"></path></svg></a>Documentation</h2>
<p dir="auto">For more information, consult the
<a href="https://www.fico.com/fico-xpress-optimization/docs/latest/solver/optimizer/HTML" rel="nofollow">FICO optimizer manual</a>.</p>
</article></div>